assumption(1).
assumption(2).
assumption(3).
assumption(4).
assumption(5).
assumption(6).
assumption(7).
assumption(8).
assumption(9).
assumption(10).
assumption(11).
assumption(12).
assumption(13).
assumption(14).
head(r0,24).
body(r0,28).
body(r0,4).
body(r0,3).
body(r0,34).
body(r0,6).
body(r0,1).
head(r1,24).
body(r1,34).
head(r2,29).
body(r2,21).
body(r2,22).
head(r3,29).
body(r3,13).
body(r3,28).
body(r3,17).
head(r4,33).
body(r4,7).
head(r5,33).
body(r5,29).
body(r5,24).
body(r5,26).
body(r5,33).
body(r5,23).
body(r5,17).
head(r6,33).
body(r6,32).
body(r6,18).
head(r7,32).
body(r7,8).
body(r7,4).
body(r7,20).
head(r8,32).
body(r8,8).
body(r8,17).
body(r8,34).
body(r8,30).
body(r8,22).
head(r9,32).
body(r9,2).
body(r9,21).
body(r9,32).
body(r9,17).
body(r9,5).
body(r9,34).
head(r10,32).
body(r10,30).
body(r10,6).
body(r10,27).
body(r10,17).
body(r10,8).
body(r10,14).
head(r11,25).
body(r11,31).
head(r12,25).
body(r12,2).
body(r12,16).
body(r12,12).
body(r12,26).
body(r12,34).
body(r12,5).
head(r13,25).
body(r13,10).
head(r14,25).
body(r14,10).
body(r14,7).
body(r14,19).
body(r14,2).
body(r14,17).
head(r15,25).
body(r15,3).
body(r15,5).
head(r16,19).
body(r16,30).
body(r16,6).
body(r16,7).
body(r16,27).
body(r16,34).
head(r17,19).
body(r17,33).
body(r17,8).
head(r18,28).
body(r18,17).
body(r18,25).
body(r18,8).
body(r18,11).
body(r18,10).
head(r19,28).
body(r19,18).
body(r19,28).
body(r19,19).
body(r19,5).
head(r20,28).
body(r20,1).
head(r21,22).
body(r21,4).
body(r21,33).
body(r21,5).
body(r21,12).
head(r22,22).
body(r22,22).
body(r22,32).
head(r23,22).
body(r23,13).
body(r23,4).
body(r23,29).
head(r24,22).
body(r24,34).
body(r24,31).
body(r24,1).
body(r24,19).
head(r25,22).
body(r25,3).
head(r26,26).
body(r26,24).
body(r26,1).
body(r26,21).
head(r27,26).
body(r27,14).
body(r27,33).
body(r27,10).
body(r27,21).
head(r28,18).
body(r28,34).
body(r28,14).
body(r28,29).
body(r28,5).
head(r29,18).
body(r29,21).
body(r29,5).
body(r29,12).
body(r29,1).
body(r29,31).
body(r29,2).
head(r30,18).
body(r30,26).
body(r30,25).
body(r30,11).
body(r30,8).
body(r30,18).
head(r31,18).
body(r31,21).
body(r31,23).
body(r31,13).
head(r32,30).
body(r32,22).
body(r32,20).
body(r32,25).
body(r32,5).
head(r33,30).
body(r33,19).
body(r33,11).
body(r33,6).
head(r34,30).
body(r34,6).
body(r34,28).
body(r34,1).
body(r34,20).
head(r35,30).
body(r35,26).
body(r35,24).
body(r35,29).
body(r35,13).
body(r35,3).
body(r35,33).
head(r36,31).
body(r36,34).
body(r36,4).
body(r36,26).
head(r37,20).
body(r37,14).
head(r38,20).
body(r38,22).
body(r38,7).
body(r38,27).
body(r38,28).
head(r39,20).
body(r39,21).
body(r39,6).
body(r39,8).
body(r39,10).
head(r40,20).
body(r40,28).
body(r40,27).
head(r41,20).
body(r41,13).
body(r41,14).
body(r41,30).
body(r41,2).
body(r41,4).
head(r42,27).
body(r42,33).
body(r42,20).
body(r42,13).
body(r42,24).
body(r42,23).
body(r42,26).
head(r43,27).
body(r43,19).
head(r44,27).
body(r44,4).
body(r44,6).
body(r44,2).
body(r44,8).
head(r45,21).
body(r45,23).
head(r46,21).
body(r46,3).
head(r47,21).
body(r47,29).
head(r48,16).
body(r48,20).
body(r48,16).
body(r48,32).
body(r48,7).
body(r48,11).
head(r49,17).
body(r49,30).
body(r49,21).
body(r49,6).
head(r50,17).
body(r50,6).
body(r50,4).
body(r50,8).
body(r50,31).
body(r50,11).
body(r50,14).
head(r51,23).
body(r51,30).
body(r51,20).
head(r52,34).
body(r52,9).
body(r52,28).
head(r53,34).
body(r53,20).
body(r53,24).
body(r53,25).
contrary(1,19).
contrary(2,34).
contrary(3,7).
contrary(4,2).
contrary(5,33).
contrary(6,25).
contrary(7,25).
contrary(8,8).
contrary(9,26).
contrary(10,26).
contrary(11,11).
contrary(12,33).
contrary(13,29).
contrary(14,8).
