rS(1,s).
rS(1,q).
rS(1,r).
stS(0,s,p).
stS(0,s,o).
stS(1,s,p).
stS(1,s,o).
stS(1,q,p).
stS(1,q,o).
stS(1,r,p).
stS(1,r,o).
stR(1,1,s,p).
stR(1,1,s,o).
m(1,p,pb1,1).
pm(0,p,pb1,1).
pm(1,p,pb1,7).
pm(1,p,pb1,2).
pm(1,p,pb1,3).
remR(0,1,s,p).
remR(0,2,q,p).
remR(0,3,r,p).
remR(0,7,r,p).
remR(0,4,xb,p).
remR(0,5,t,p).
remR(0,6,xc,p).
remR(0,1,s,o).
remR(0,2,q,o).
remR(0,3,r,o).
remR(0,7,r,o).
remR(0,4,xb,o).
remR(0,5,t,o).
remR(0,6,xc,o).
remR(1,6,xc,o).
remR(1,2,q,p).
remR(1,3,r,p).
remR(1,7,r,p).
remR(1,4,xb,p).
remR(1,5,t,p).
remR(1,6,xc,p).
remR(1,5,t,o).
remR(1,2,q,o).
remR(1,3,r,o).
remR(1,7,r,o).
remR(1,4,xb,o).
unexpS(0,s,p).
unexpS(1,r,p).
unexpS(1,q,p).
stExpS(1,s,o).
term(6).
