rS(1,s).
rS(2,q).
rS(1,q).
rS(1,r).
rS(2,a).
stS(0,s,p).
stS(0,s,o).
stS(1,s,p).
stS(1,s,o).
stS(1,q,p).
stS(1,q,o).
stS(1,r,p).
stS(1,r,o).
stS(2,s,p).
stS(2,s,o).
stS(2,q,p).
stS(2,q,o).
stS(2,r,p).
stS(2,r,o).
stS(2,b,p).
stS(2,b,o).
remBloR(2,4,xb,p).
def(2,b).
stR(1,1,s,p).
stR(1,1,s,o).
stR(2,1,s,p).
stR(2,1,s,o).
stR(2,3,r,p).
stR(2,3,r,o).
unbloComR(2,3,r,o).
m(1,p,pb1,1).
m(2,p,pb1,3).
comS(2,b,p).
comS(2,r,p).
pm(0,p,pb1,1).
pm(1,p,pb1,7).
pm(1,p,pb1,2).
pm(1,p,pb1,3).
pm(2,p,pb1,2).
pm(2,o,ob2,4).
remR(0,1,s,p).
remR(0,2,q,p).
remR(0,3,r,p).
remR(0,7,r,p).
remR(0,4,xb,p).
remR(0,5,t,p).
remR(0,6,xc,p).
remR(0,1,s,o).
remR(0,2,q,o).
remR(0,3,r,o).
remR(0,7,r,o).
remR(0,4,xb,o).
remR(0,5,t,o).
remR(0,6,xc,o).
remR(1,6,xc,o).
remR(1,2,q,p).
remR(1,3,r,p).
remR(1,7,r,p).
remR(1,4,xb,p).
remR(1,5,t,p).
remR(1,6,xc,p).
remR(1,5,t,o).
remR(1,2,q,o).
remR(1,3,r,o).
remR(1,7,r,o).
remR(1,4,xb,o).
remR(2,2,q,p).
remR(2,7,r,p).
remR(2,4,xb,p).
remR(2,5,t,p).
remR(2,6,xc,p).
remR(2,2,q,o).
remR(2,7,r,o).
remR(2,4,xb,o).
remR(2,5,t,o).
remR(2,6,xc,o).
unexpS(0,s,p).
unexpS(1,r,p).
unexpS(1,q,p).
unexpS(2,q,p).
unexpS(2,b,p).
stExpS(1,s,o).
stExpS(2,s,o).
stExpS(2,b,o).
unbloComS(2,b,o).
unbloComS(2,r,o).
term(6).
