stS(0,s,p).
stS(0,s,o).
pm(0,p,pb1,1).
remR(0,1,s,p).
remR(0,2,p,p).
remR(0,3,t,p).
remR(0,4,xa,p).
remR(0,5,xc,p).
remR(0,6,xd,p).
remR(0,1,s,o).
remR(0,2,p,o).
remR(0,3,t,o).
remR(0,4,xa,o).
remR(0,5,xc,o).
remR(0,6,xd,o).
unexpS(0,s,p).
pm(0,p,pb1,1).
rS(1,s).
rS(1,p).
rS(1,a).
rS(1,d).
stS(1,s,p).
stS(1,s,o).
stS(1,p,p).
stS(1,p,o).
stS(1,a,p).
stS(1,a,o).
stS(1,d,p).
stS(1,d,o).
remBloR(1,4,xa,p).
remBloR(1,6,xd,p).
def(1,a).
def(1,d).
stR(1,1,s,p).
stR(1,1,s,o).
m(1,p,pb1,1).
comS(1,a,p).
comS(1,d,p).
pm(1,p,pb1,2).
pm(1,o,ob2,4).
pm(1,o,ob2,6).
remR(1,2,p,p).
remR(1,3,t,p).
remR(1,4,xa,p).
remR(1,5,xc,p).
remR(1,6,xd,p).
remR(1,2,p,o).
remR(1,3,t,o).
remR(1,4,xa,o).
remR(1,5,xc,o).
remR(1,6,xd,o).
unexpS(1,p,p).
unexpS(1,a,p).
unexpS(1,d,p).
stExpS(1,s,o).
stExpS(1,a,o).
stExpS(1,d,o).
unbloComS(1,a,o).
unbloComS(1,d,o).
pm(1,p,pb1,2).
pm(1,o,ob2,4).
pm(1,o,ob2,6).
rS(2,p).
rS(2,xc).
stS(2,s,p).
stS(2,s,o).
stS(2,p,p).
stS(2,p,o).
stS(2,a,p).
stS(2,a,o).
stS(2,d,p).
stS(2,d,o).
stS(2,xa,o).
stS(2,b,o).
stS(2,t,o).
remBloR(2,4,xa,p).
remBloR(2,6,xd,p).
def(2,a).
def(2,d).
stR(2,1,s,p).
stR(2,1,s,o).
stR(2,4,xa,o).
unbloSupSR(2,4,xa,o).
m(2,o,ob2,4).
comS(2,a,p).
comS(2,d,p).
pm(2,p,pb1,2).
pm(2,p,pf2,xe).
pm(2,o,ob1,3).
pm(2,o,ob2,6).
remR(2,2,p,p).
remR(2,3,t,p).
remR(2,4,xa,p).
remR(2,5,xc,p).
remR(2,6,xd,p).
remR(2,2,p,o).
remR(2,3,t,o).
remR(2,5,xc,o).
remR(2,6,xd,o).
unexpS(2,p,p).
unexpS(2,a,p).
unexpS(2,d,p).
stExpS(2,s,o).
stExpS(2,a,o).
stExpS(2,d,o).
stExpS(2,xa,o).
stExpS(2,b,o).
unbloComS(2,a,o).
unbloComS(2,d,o).
unbloComS(2,b,o).
unbloSupSS(2,xa,o).
unbloSupSS(2,b,o).
unbloSupSS(2,t,o).
culCan(2,b).
pm(2,p,pb1,2).
pm(2,p,pf2,xe).
pm(2,o,ob1,3).
pm(2,o,ob2,6).
rS(3,t).
rS(3,c).
stS(3,s,p).
stS(3,s,o).
stS(3,p,p).
stS(3,p,o).
stS(3,a,p).
stS(3,a,o).
stS(3,d,p).
stS(3,d,o).
stS(3,xa,o).
stS(3,b,o).
stS(3,t,o).
stS(3,xd,o).
stS(3,e,o).
remBloR(3,4,xa,p).
remBloR(3,6,xd,p).
def(3,a).
def(3,d).
stR(3,1,s,p).
stR(3,1,s,o).
stR(3,4,xa,o).
stR(3,6,xd,o).
unbloComR(3,6,xd,o).
unbloSupSR(3,6,xd,o).
unbloSupSR(3,4,xa,o).
m(3,o,ob2,6).
comS(3,a,p).
comS(3,d,p).
pm(3,p,pb1,2).
pm(3,p,pf2,xe).
pm(3,o,ob1,3).
remR(3,2,p,p).
remR(3,3,t,p).
remR(3,4,xa,p).
remR(3,5,xc,p).
remR(3,6,xd,p).
remR(3,2,p,o).
remR(3,3,t,o).
remR(3,5,xc,o).
unexpS(3,p,p).
unexpS(3,a,p).
unexpS(3,d,p).
stExpS(3,s,o).
stExpS(3,a,o).
stExpS(3,d,o).
stExpS(3,xa,o).
stExpS(3,b,o).
stExpS(3,xd,o).
stExpS(3,e,o).
unbloComS(3,a,o).
unbloComS(3,d,o).
unbloComS(3,b,o).
unbloComS(3,e,o).
unbloComS(3,xd,o).
unbloSupSS(3,xa,o).
unbloSupSS(3,xd,o).
unbloSupSS(3,e,o).
unbloSupSS(3,b,o).
unbloSupSS(3,t,o).
culCan(3,e).
culCan(3,b).
pm(3,p,pb1,2).
pm(3,p,pf2,xe).
pm(3,o,ob1,3).
rS(4,xa).
rS(4,b).
rS(4,t).
stS(4,s,p).
stS(4,s,o).
stS(4,p,p).
stS(4,p,o).
stS(4,a,p).
stS(4,a,o).
stS(4,d,p).
stS(4,d,o).
stS(4,xc,p).
stS(4,xc,o).
stS(4,xa,o).
stS(4,b,o).
stS(4,t,o).
stS(4,xd,o).
stS(4,e,o).
remBloR(4,3,t,p).
remBloR(4,3,t,o).
remBloR(4,4,xa,p).
remBloR(4,6,xd,p).
cul(4,c).
def(4,a).
def(4,d).
stR(4,1,s,p).
stR(4,1,s,o).
stR(4,2,p,p).
stR(4,2,p,o).
stR(4,4,xa,o).
stR(4,6,xd,o).
unbloComR(4,6,xd,o).
unbloSupSR(4,6,xd,o).
m(4,p,pb1,2).
comS(4,a,p).
comS(4,d,p).
pm(4,p,pb1,5).
pm(4,p,pf2,xe).
remR(4,3,t,p).
remR(4,4,xa,p).
remR(4,5,xc,p).
remR(4,6,xd,p).
remR(4,3,t,o).
remR(4,5,xc,o).
unexpS(4,a,p).
unexpS(4,d,p).
unexpS(4,xc,p).
stExpS(4,s,o).
stExpS(4,p,o).
stExpS(4,a,o).
stExpS(4,d,o).
stExpS(4,xa,o).
stExpS(4,b,o).
stExpS(4,t,o).
stExpS(4,xd,o).
stExpS(4,e,o).
stBloS(4,t,o).
stBloS(4,xa,o).
stBloR(4,4,xa,o).
unbloComS(4,a,o).
unbloComS(4,d,o).
unbloComS(4,b,o).
unbloComS(4,e,o).
unbloComS(4,xd,o).
unbloSupSS(4,xd,o).
unbloSupSS(4,e,o).
culCan(4,e).
pm(4,p,pb1,5).
pm(4,p,pf2,xe).
rS(5,xc).
rS(5,f).
stS(5,s,p).
stS(5,s,o).
stS(5,p,p).
stS(5,p,o).
stS(5,a,p).
stS(5,a,o).
stS(5,d,p).
stS(5,d,o).
stS(5,xc,p).
stS(5,xc,o).
stS(5,f,p).
stS(5,f,o).
stS(5,xa,o).
stS(5,b,o).
stS(5,t,o).
stS(5,xd,o).
stS(5,e,o).
remBloR(5,3,t,p).
remBloR(5,3,t,o).
remBloR(5,4,xa,p).
remBloR(5,6,xd,p).
cul(5,c).
def(5,a).
def(5,d).
def(5,f).
stR(5,1,s,p).
stR(5,1,s,o).
stR(5,2,p,p).
stR(5,2,p,o).
stR(5,5,xc,p).
stR(5,5,xc,o).
stR(5,4,xa,o).
stR(5,6,xd,o).
unbloComR(5,5,xc,o).
unbloComR(5,6,xd,o).
unbloComR(5,2,p,o).
unbloComR(5,1,s,o).
unbloSupSR(5,6,xd,o).
m(5,p,pb1,5).
comS(5,a,p).
comS(5,d,p).
comS(5,f,p).
comS(5,xc,p).
comS(5,p,p).
comS(5,s,p).
pm(5,p,pf2,xe).
remR(5,3,t,p).
remR(5,4,xa,p).
remR(5,6,xd,p).
remR(5,3,t,o).
unexpS(5,a,p).
unexpS(5,d,p).
unexpS(5,f,p).
stExpS(5,s,o).
stExpS(5,p,o).
stExpS(5,a,o).
stExpS(5,d,o).
stExpS(5,xa,o).
stExpS(5,b,o).
stExpS(5,t,o).
stExpS(5,xd,o).
stExpS(5,e,o).
stExpS(5,xc,o).
stExpS(5,f,o).
stBloS(5,t,o).
stBloS(5,xa,o).
stBloR(5,4,xa,o).
unbloComS(5,a,o).
unbloComS(5,d,o).
unbloComS(5,b,o).
unbloComS(5,e,o).
unbloComS(5,f,o).
unbloComS(5,xc,o).
unbloComS(5,xd,o).
unbloComS(5,p,o).
unbloComS(5,s,o).
unbloSupSS(5,xd,o).
unbloSupSS(5,e,o).
culCan(5,e).
pm(5,p,pf2,xe).
rS(6,xd).
rS(6,e).
stS(6,s,p).
stS(6,s,o).
stS(6,p,p).
stS(6,p,o).
stS(6,a,p).
stS(6,a,o).
stS(6,d,p).
stS(6,d,o).
stS(6,xc,p).
stS(6,xc,o).
stS(6,f,p).
stS(6,f,o).
stS(6,xe,p).
stS(6,xe,o).
stS(6,xa,o).
stS(6,b,o).
stS(6,t,o).
stS(6,xd,o).
stS(6,e,o).
remBloR(6,3,t,p).
remBloR(6,3,t,o).
remBloR(6,4,xa,p).
remBloR(6,6,xd,p).
cul(6,c).
cul(6,b).
cul(6,e).
def(6,a).
def(6,d).
def(6,f).
def(6,xe).
stR(6,1,s,p).
stR(6,1,s,o).
stR(6,2,p,p).
stR(6,2,p,o).
stR(6,5,xc,p).
stR(6,5,xc,o).
stR(6,4,xa,o).
stR(6,6,xd,o).
unbloComR(6,5,xc,o).
unbloComR(6,2,p,o).
unbloComR(6,1,s,o).
m(6,p,pf2,xe).
comS(6,a,p).
comS(6,d,p).
comS(6,f,p).
comS(6,xe,p).
comS(6,xc,p).
comS(6,p,p).
comS(6,s,p).
remR(6,3,t,p).
remR(6,4,xa,p).
remR(6,6,xd,p).
remR(6,3,t,o).
unexpS(6,a,p).
unexpS(6,d,p).
unexpS(6,f,p).
unexpS(6,xe,p).
stExpS(6,s,o).
stExpS(6,p,o).
stExpS(6,a,o).
stExpS(6,d,o).
stExpS(6,xa,o).
stExpS(6,b,o).
stExpS(6,t,o).
stExpS(6,xd,o).
stExpS(6,e,o).
stExpS(6,xc,o).
stExpS(6,f,o).
stExpS(6,xe,o).
stBloS(6,b,o).
stBloS(6,e,o).
stBloS(6,xd,o).
stBloS(6,t,o).
stBloS(6,xa,o).
stBloR(6,6,xd,o).
stBloR(6,4,xa,o).
unbloComS(6,a,o).
unbloComS(6,d,o).
unbloComS(6,f,o).
unbloComS(6,xe,o).
unbloComS(6,xc,o).
unbloComS(6,p,o).
unbloComS(6,s,o).
term(6).
end(6,p).
m(1,p,pb1,1).
m(2,o,ob2,4).
m(3,o,ob2,6).
m(4,p,pb1,2).
m(5,p,pb1,5).
m(6,p,pf2,xe)