rS(1,s) rS(2,q) rS(3,r) rS(7,r) rS(4,xb) rS(5,t) rS(6,xc) rS(1,q) rS(1,r) rS(2,a) rS(3,b) rS(7,c) rS(4,q) rS(4,t) rS(5,c) rS(6,q) rS(6,d) stS(0,s,p) stS(0,s,o) stS(1,s,p) stS(1,s,o) stS(1,q,p) stS(1,q,o) stS(1,r,p) stS(1,r,o) stS(2,s,p) stS(2,s,o) stS(2,q,p) stS(2,q,o) stS(2,r,p) stS(2,r,o) stS(2,b,p) stS(2,b,o) stS(3,s,p) stS(3,s,o) stS(3,q,p) stS(3,q,o) stS(3,r,p) stS(3,r,o) stS(3,b,p) stS(3,b,o) stS(3,t,o) stS(3,xb,o) stS(4,s,p) stS(4,s,o) stS(4,q,p) stS(4,q,o) stS(4,r,p) stS(4,r,o) stS(4,c,o) stS(4,a,o) stS(4,b,p) stS(4,b,o) stS(4,t,o) stS(4,xb,o) stS(5,s,p) stS(5,s,o) stS(5,q,p) stS(5,q,o) stS(5,r,p) stS(5,r,o) stS(5,c,o) stS(5,a,p) stS(5,a,o) stS(5,b,p) stS(5,b,o) stS(5,t,o) stS(5,xb,o) stS(6,s,p) stS(6,s,o) stS(6,q,p) stS(6,q,o) stS(6,r,p) stS(6,r,o) stS(6,c,o) stS(6,a,p) stS(6,a,o) stS(6,b,p) stS(6,b,o) stS(6,t,o) stS(6,xb,o) stS(6,xc,p) stS(6,xc,o) stS(6,d,p) stS(6,d,o) remBloR(2,4,xb,p) remBloR(3,4,xb,p) remBloR(4,4,xb,p) remBloR(5,4,xb,p) remBloR(6,7,r,p) remBloR(6,7,r,o) remBloR(6,5,t,p) remBloR(6,4,xb,p) cul(6,c) def(2,b) def(3,b) def(4,b) def(5,a) def(5,b) def(6,a) def(6,b) def(6,d) stR(1,1,s,p) stR(1,1,s,o) stR(2,1,s,p) stR(2,1,s,o) stR(2,3,r,p) stR(2,3,r,o) stR(3,1,s,p) stR(3,1,s,o) stR(3,3,r,p) stR(3,3,r,o) stR(3,4,xb,o) stR(4,1,s,p) stR(4,1,s,o) stR(4,2,q,o) stR(4,3,r,p) stR(4,3,r,o) stR(4,5,t,o) stR(4,4,xb,o) stR(5,1,s,p) stR(5,1,s,o) stR(5,2,q,p) stR(5,2,q,o) stR(5,3,r,p) stR(5,3,r,o) stR(5,5,t,o) stR(5,4,xb,o) stR(6,1,s,p) stR(6,1,s,o) stR(6,2,q,p) stR(6,2,q,o) stR(6,3,r,p) stR(6,3,r,o) stR(6,5,t,o) stR(6,4,xb,o) stR(6,6,xc,p) stR(6,6,xc,o) unbloComR(2,3,r,o) unbloComR(3,3,r,o) unbloComR(4,5,t,o) unbloComR(4,3,r,o) unbloComR(4,2,q,o) unbloComR(4,4,xb,o) unbloComR(4,1,s,o) unbloComR(5,5,t,o) unbloComR(5,3,r,o) unbloComR(5,2,q,o) unbloComR(5,4,xb,o) unbloComR(5,1,s,o) unbloComR(6,3,r,o) unbloComR(6,2,q,o) unbloComR(6,6,xc,o) unbloComR(6,1,s,o) unbloSupSR(3,4,xb,o) unbloSupSR(4,4,xb,o) unbloSupSR(4,5,t,o) unbloSupSR(4,2,q,o) unbloSupSR(5,4,xb,o) unbloSupSR(5,5,t,o) unbloSupSR(5,2,q,o) m(1,p,pb1,1) m(2,p,pb1,3) m(3,o,ob2,4) m(4,o,ob1,2) m(4,o,ob1,5) m(5,p,pb1,2) m(6,p,pb2,6) comS(2,b,p) comS(2,r,p) comS(3,b,p) comS(3,r,p) comS(4,b,p) comS(4,r,p) comS(5,a,p) comS(5,b,p) comS(5,r,p) comS(5,q,p) comS(5,s,p) comS(6,a,p) comS(6,b,p) comS(6,d,p) comS(6,r,p) comS(6,q,p) comS(6,s,p) comS(6,xc,p) pm(0,p,pb1,1) pm(1,p,pb1,7) pm(1,p,pb1,2) pm(1,p,pb1,3) pm(2,p,pb1,2) pm(2,o,ob2,4) pm(3,p,pb1,2) pm(3,o,ob1,2) pm(3,o,ob1,5) pm(4,p,pb1,2) pm(4,p,pb2,6) pm(5,p,pb2,6) remR(0,1,s,p) remR(0,2,q,p) remR(0,3,r,p) remR(0,7,r,p) remR(0,4,xb,p) remR(0,5,t,p) remR(0,6,xc,p) remR(0,1,s,o) remR(0,2,q,o) remR(0,3,r,o) remR(0,7,r,o) remR(0,4,xb,o) remR(0,5,t,o) remR(0,6,xc,o) remR(1,6,xc,o) remR(1,2,q,p) remR(1,3,r,p) remR(1,7,r,p) remR(1,4,xb,p) remR(1,5,t,p) remR(1,6,xc,p) remR(1,5,t,o) remR(1,2,q,o) remR(1,3,r,o) remR(1,7,r,o) remR(1,4,xb,o) remR(2,2,q,p) remR(2,7,r,p) remR(2,4,xb,p) remR(2,5,t,p) remR(2,6,xc,p) remR(2,2,q,o) remR(2,7,r,o) remR(2,4,xb,o) remR(2,5,t,o) remR(2,6,xc,o) remR(3,2,q,p) remR(3,7,r,p) remR(3,4,xb,p) remR(3,5,t,p) remR(3,6,xc,p) remR(3,2,q,o) remR(3,7,r,o) remR(3,5,t,o) remR(3,6,xc,o) remR(4,2,q,p) remR(4,7,r,p) remR(4,4,xb,p) remR(4,5,t,p) remR(4,6,xc,p) remR(4,7,r,o) remR(4,6,xc,o) remR(5,7,r,p) remR(5,4,xb,p) remR(5,5,t,p) remR(5,6,xc,p) remR(5,7,r,o) remR(5,6,xc,o) remR(6,7,r,p) remR(6,4,xb,p) remR(6,5,t,p) remR(6,7,r,o) unexpS(0,s,p) unexpS(1,r,p) unexpS(1,q,p) unexpS(2,q,p) unexpS(2,b,p) unexpS(3,q,p) unexpS(3,b,p) unexpS(4,q,p) unexpS(4,b,p) unexpS(5,a,p) unexpS(5,b,p) unexpS(6,a,p) unexpS(6,b,p) unexpS(6,d,p) stExpS(1,s,o) stExpS(2,s,o) stExpS(2,b,o) stExpS(3,s,o) stExpS(3,b,o) stExpS(3,xb,o) stExpS(4,s,o) stExpS(4,q,o) stExpS(4,c,o) stExpS(4,a,o) stExpS(4,b,o) stExpS(4,t,o) stExpS(4,xb,o) stExpS(5,s,o) stExpS(5,q,o) stExpS(5,c,o) stExpS(5,a,o) stExpS(5,b,o) stExpS(5,t,o) stExpS(5,xb,o) stExpS(6,s,o) stExpS(6,q,o) stExpS(6,r,o) stExpS(6,c,o) stExpS(6,a,o) stExpS(6,b,o) stExpS(6,t,o) stExpS(6,xb,o) stExpS(6,xc,o) stExpS(6,d,o) stBloS(6,c,o) stBloS(6,xb,o) stBloS(6,t,o) stBloR(6,5,t,o) stBloR(6,4,xb,o) unbloComS(2,b,o) unbloComS(2,r,o) unbloComS(3,b,o) unbloComS(3,r,o) unbloComS(4,c,o) unbloComS(4,a,o) unbloComS(4,b,o) unbloComS(4,t,o) unbloComS(4,q,o) unbloComS(4,r,o) unbloComS(4,xb,o) unbloComS(4,s,o) unbloComS(5,c,o) unbloComS(5,a,o) unbloComS(5,b,o) unbloComS(5,t,o) unbloComS(5,q,o) unbloComS(5,r,o) unbloComS(5,xb,o) unbloComS(5,s,o) unbloComS(6,a,o) unbloComS(6,b,o) unbloComS(6,d,o) unbloComS(6,q,o) unbloComS(6,r,o) unbloComS(6,xc,o) unbloComS(6,s,o) unbloSupSS(3,xb,o) unbloSupSS(3,q,o) unbloSupSS(3,t,o) unbloSupSS(4,xb,o) unbloSupSS(4,q,o) unbloSupSS(4,t,o) unbloSupSS(4,c,o) unbloSupSS(4,a,o) unbloSupSS(5,xb,o) unbloSupSS(5,q,o) unbloSupSS(5,t,o) unbloSupSS(5,c,o) unbloSupSS(5,a,o) culCan(4,c) culCan(4,a) culCan(5,c) culCan(5,a) term(6) end(6,p).
